Version identifier: 12.10.0.0 | 2019-11-26 | 843d4de
CPXPARAM_WorkMem                                 28672
Tried aggregator 2 times.
MIP Presolve modified 64 coefficients.
Aggregator did 20 substitutions.
Reduced MIP has 94 rows, 120 columns, and 448 nonzeros.
Reduced MIP has 120 binaries, 0 generals, 0 SOSs, and 0 indicators.
Presolve time = 0,00 sec. (0,56 ticks)
Found incumbent of value 500,000000 after 0,00 sec. (1,09 ticks)
Probing time = 0,00 sec. (0,15 ticks)
Tried aggregator 1 time.
Detecting symmetries...
MIP Presolve eliminated 12 rows and 0 columns.
MIP Presolve added 24 rows and 0 columns.
Reduced MIP has 106 rows, 120 columns, and 460 nonzeros.
Reduced MIP has 120 binaries, 0 generals, 0 SOSs, and 0 indicators.
Presolve time = 0,00 sec. (0,56 ticks)
Probing time = 0,00 sec. (0,14 ticks)
Clique table members: 290.
MIP emphasis: balance optimality and feasibility.
MIP search method: dynamic search.
Parallel mode: deterministic, using up to 16 threads.
Root relaxation solution time = 0,00 sec. (0,41 ticks)

        Nodes                                         Cuts/
   Node  Left     Objective  IInf  Best Integer    Best Bound    ItCnt     Gap

*     0+    0                          500,0000        0,0000           100,00%
*     0+    0                          329,0000        0,0000           100,00%
*     0+    0                          305,0000        0,0000           100,00%
      0     0      148,1667    73      305,0000      148,1667       64   51,42%
      0     0      148,1667    73      305,0000      Cuts: 39       86   51,42%
      0     0      148,7626    73      305,0000     Cuts: 107      169   51,23%
      0     0      157,8700    73      305,0000      Cuts: 97      236   48,24%
      0     0      160,2294    73      305,0000      Cuts: 54      256   47,47%
      0     0      162,9034    73      305,0000      Cuts: 37      274   46,59%
      0     0      211,0117    73      305,0000      Cuts: 95      411   30,82%
      0     0      214,4631    73      305,0000      Cuts: 23      444   29,68%
      0     0      218,4063    73      305,0000      Cuts: 33      472   28,39%
      0     0      218,7483    73      305,0000      Cuts: 13      485   28,28%
      0     0      218,7971    73      305,0000   ZeroHalf: 7      491   28,26%
      0     0      219,3498    73      305,0000      Cuts: 14      506   28,08%
      0     0      220,6203    73      305,0000      Cuts: 12      522   27,67%
      0     0      221,0279    73      305,0000      Cuts: 29      539   27,53%
      0     0      221,1919    73      305,0000      Cuts: 20      553   27,48%
      0     0      221,8728    73      305,0000      Cuts: 23      575   27,25%
      0     0      223,1989    73      305,0000      Cuts: 24      603   26,82%
      0     0      223,7205    73      305,0000      Cuts: 22      621   26,65%
      0     0      223,9962    73      305,0000      Cuts: 19      639   26,56%
      0     0      224,1538    73      305,0000       Cuts: 6      656   26,51%
      0     0      225,5924    73      305,0000      Cuts: 20      703   26,04%
      0     0      225,9850    73      305,0000      Cuts: 40      727   25,91%
      0     0      226,1381    73      305,0000      Cuts: 29      743   25,86%
      0     0      226,3237    73      305,0000      Cuts: 10      764   25,80%
      0     0      226,4721    73      305,0000      Cuts: 43      785   25,75%
*     0+    0                          300,0000      226,4721            24,51%
      0     0      226,7403    73      300,0000      Cuts: 31      810   24,42%
      0     0      227,2755    73      300,0000      Cuts: 25      836   24,24%
      0     0      228,3052    73      300,0000      Cuts: 41      862   23,90%
      0     0      228,4772    73      300,0000      Cuts: 36      873   23,84%
      0     0      228,6561    73      300,0000      Cuts: 20      890   23,78%
      0     0      229,0668    73      300,0000      Cuts: 18      914   23,64%
      0     0      229,2102    73      300,0000      Cuts: 28      929   23,60%
      0     0      229,3869    73      300,0000      Cuts: 18      951   23,54%
      0     0      229,6108    73      300,0000      Cuts: 20      975   23,46%
      0     0      229,8546    73      300,0000      Cuts: 33      993   23,38%
      0     0      230,2116    73      300,0000      Cuts: 19     1018   23,26%
      0     0      230,4781    73      300,0000      Cuts: 24     1038   23,17%
      0     0      230,6533    73      300,0000      Cuts: 20     1059   23,12%
      0     0      230,7768    73      300,0000      Cuts: 19     1083   23,07%
*     0+    0                          287,0000      230,7768            19,59%
      0     0        cutoff            287,0000      287,0000     1103    0,00%
Elapsed time = 0,18 sec. (95,96 ticks, tree = 0,01 MB, solutions = 5)

GUB cover cuts applied:  11
Clique cuts applied:  16
Cover cuts applied:  23
Mixed integer rounding cuts applied:  12
Zero-half cuts applied:  35
Gomory fractional cuts applied:  4

Root node processing (before b&c):
  Real time             =    0,18 sec. (95,97 ticks)
Parallel b&c, 16 threads:
  Real time             =    0,00 sec. (0,00 ticks)
  Sync time (average)   =    0,00 sec.
  Wait time (average)   =    0,00 sec.
                          ------------
Total (root+branch&cut) =    0,18 sec. (95,97 ticks)
